# b3lyp/lanl2dz

test

0 1
26 0.0  0.000000  0.110200
1 0.0  0.711600 -0.440800
1 0.0 -0.711600 -0.440800



