# b3lyp/cc-pvdz

test

0 3
8 0.0  0.000000  0.110200
1 0.0  0.711600 -0.440800
1 0.0 -0.711600 -0.440800



